c File: instances/38_0.45_3.col
c
c Description: Random graph of size 38 vertices and P(0.44999999999999996) of edges between any two vertices.
p col 38 703
e 1 2
e 1 3
e 1 4
e 1 5
e 1 8
e 1 10
e 1 12
e 1 13
e 1 16
e 1 17
e 1 21
e 1 22
e 1 23
e 1 28
e 1 31
e 1 34
e 1 37
e 1 38
e 2 3
e 2 9
e 2 12
e 2 13
e 2 14
e 2 17
e 2 18
e 2 19
e 2 21
e 2 24
e 2 26
e 2 28
e 2 29
e 2 33
e 2 34
e 2 35
e 2 37
e 2 38
e 3 4
e 3 6
e 3 7
e 3 9
e 3 10
e 3 12
e 3 14
e 3 17
e 3 19
e 3 20
e 3 21
e 3 31
e 3 32
e 3 33
e 3 37
e 4 8
e 4 12
e 4 14
e 4 19
e 4 20
e 4 23
e 4 29
e 4 31
e 4 36
e 4 38
e 5 8
e 5 9
e 5 10
e 5 12
e 5 13
e 5 14
e 5 15
e 5 17
e 5 21
e 5 22
e 5 23
e 5 27
e 5 28
e 5 32
e 5 33
e 5 35
e 5 36
e 5 38
e 6 7
e 6 9
e 6 11
e 6 12
e 6 16
e 6 19
e 6 20
e 6 24
e 6 27
e 6 32
e 6 34
e 7 9
e 7 10
e 7 16
e 7 17
e 7 20
e 7 23
e 7 25
e 7 27
e 7 29
e 7 33
e 7 34
e 7 35
e 7 37
e 8 10
e 8 12
e 8 15
e 8 16
e 8 17
e 8 18
e 8 20
e 8 21
e 8 22
e 8 23
e 8 28
e 8 32
e 8 35
e 8 36
e 9 14
e 9 16
e 9 20
e 9 25
e 9 27
e 9 28
e 9 30
e 9 31
e 9 33
e 9 34
e 9 36
e 9 38
e 10 13
e 10 15
e 10 16
e 10 17
e 10 19
e 10 24
e 10 27
e 10 28
e 10 30
e 10 34
e 10 35
e 10 38
e 11 13
e 11 15
e 11 17
e 11 23
e 11 24
e 11 25
e 11 26
e 11 27
e 11 29
e 11 31
e 11 32
e 11 34
e 11 35
e 11 37
e 12 14
e 12 15
e 12 17
e 12 22
e 12 23
e 12 27
e 12 28
e 12 29
e 12 31
e 12 32
e 12 34
e 12 38
e 13 19
e 13 20
e 13 21
e 13 22
e 13 24
e 13 27
e 13 31
e 13 32
e 13 33
e 13 38
e 14 15
e 14 17
e 14 21
e 14 22
e 14 24
e 14 25
e 14 26
e 14 29
e 14 30
e 14 33
e 14 34
e 14 35
e 14 38
e 15 16
e 15 17
e 15 18
e 15 19
e 15 22
e 15 25
e 15 26
e 15 27
e 15 30
e 15 34
e 15 36
e 16 19
e 16 24
e 16 25
e 16 26
e 16 28
e 16 30
e 16 33
e 16 35
e 16 38
e 17 25
e 17 28
e 17 30
e 17 31
e 17 32
e 17 33
e 17 37
e 17 38
e 18 20
e 18 21
e 18 22
e 18 23
e 18 27
e 18 28
e 18 29
e 18 34
e 18 35
e 19 20
e 19 23
e 19 26
e 19 27
e 19 35
e 19 36
e 20 21
e 20 26
e 20 27
e 20 28
e 20 29
e 20 31
e 20 35
e 20 37
e 20 38
e 21 25
e 21 28
e 21 32
e 21 36
e 22 23
e 22 24
e 22 25
e 22 28
e 22 29
e 22 32
e 22 33
e 22 35
e 22 36
e 22 37
e 23 24
e 23 30
e 23 35
e 24 25
e 24 28
e 24 30
e 24 32
e 24 33
e 24 35
e 24 36
e 24 37
e 25 26
e 25 30
e 25 33
e 25 34
e 26 27
e 26 28
e 26 30
e 26 31
e 26 33
e 26 35
e 26 36
e 26 37
e 27 29
e 27 31
e 27 33
e 27 34
e 27 35
e 28 29
e 28 30
e 28 33
e 28 34
e 28 36
e 28 37
e 29 30
e 29 31
e 29 32
e 29 33
e 29 34
e 29 37
e 29 38
e 30 31
e 30 33
e 30 35
e 30 38
e 31 34
e 31 37
e 31 38
e 33 34
e 33 35
e 33 38
e 34 36
e 34 37
e 34 38
e 35 38
e 36 37